************************************************************************
file with basedata            : mf15_.bas
initial value random generator: 21820719
************************************************************************
projects                      :  1
jobs (incl. supersource/sink ):  32
horizon                       :  254
RESOURCES
  - renewable                 :  2   R
  - nonrenewable              :  2   N
  - doubly constrained        :  0   D
************************************************************************
PROJECT INFORMATION:
pronr.  #jobs rel.date duedate tardcost  MPM-Time
    1     30      0       38       12       38
************************************************************************
PRECEDENCE RELATIONS:
jobnr.    #modes  #successors   successors
   1        1          3           2   3   4
   2        3          3           9  10  21
   3        3          3           8  10  11
   4        3          3           5   8  10
   5        3          3           6  14  17
   6        3          3           7  15  22
   7        3          1          21
   8        3          2          12  28
   9        3          3          13  15  18
  10        3          2          12  20
  11        3          2          18  23
  12        3          2          19  24
  13        3          2          19  20
  14        3          3          15  16  25
  15        3          2          24  31
  16        3          1          23
  17        3          3          21  27  30
  18        3          1          24
  19        3          1          26
  20        3          1          22
  21        3          1          26
  22        3          2          27  30
  23        3          1          28
  24        3          1          29
  25        3          1          26
  26        3          2          29  31
  27        3          1          28
  28        3          2          29  31
  29        3          1          32
  30        3          1          32
  31        3          1          32
  32        1          0        
************************************************************************
REQUESTS/DURATIONS:
jobnr. mode duration  R 1  R 2  N 1  N 2
------------------------------------------------------------------------
  1      1     0       0    0    0    0
  2      1     1      10    2    4    0
         2     3       9    2    0    4
         3    10       6    2    0    2
  3      1     4       7    4    0    3
         2     4       9    4    7    0
         3     7       6    2    0    3
  4      1     1       8    5    7    0
         2     2       7    4    7    0
         3    10       7    2    0    6
  5      1     2       9    7    0    8
         2     4       9    6    0    6
         3     7       8    4    0    2
  6      1     3      10    7    0    4
         2     8       7    6    0    2
         3    10       4    3    9    0
  7      1     1       6    7    0   10
         2    10       4    4    0    9
         3    10       4    5    5    0
  8      1     1       6    4    9    0
         2     3       4    3    7    0
         3     9       4    2    6    0
  9      1     5       5    8    2    0
         2     7       4    6    2    0
         3     9       4    5    0    3
 10      1     2      10    3    4    0
         2     5       4    3    3    0
         3     7       2    3    0    5
 11      1     3       6    7    8    0
         2     8       6    5    0    6
         3    10       1    3    7    0
 12      1     6       4    3    0    9
         2     7       4    3    0    3
         3     7       4    2    2    0
 13      1     2       9    8    9    0
         2     7       7    7    0    6
         3    10       6    5    0    2
 14      1     2       3    8    0    4
         2     6       3    7    8    0
         3     9       2    6    0    2
 15      1     2       8    8    3    0
         2     4       8    6    0    9
         3    10       6    4    3    0
 16      1     2       3    8    7    0
         2     3       3    7    7    0
         3     5       3    6    0    5
 17      1     1       7    7    0    5
         2     4       5    6    9    0
         3     9       4    5    0    4
 18      1     2       3    9    9    0
         2     7       3    7    0    8
         3     9       2    5    6    0
 19      1     2      10    7    0    6
         2     6       9    4    0    3
         3     9       8    4    3    0
 20      1     7       5    4    0    2
         2     7       8    5    3    0
         3    10       3    3    0    3
 21      1     1      10    7    7    0
         2     7       3    5    0    4
         3     7       7    6    7    0
 22      1     4       7    6    0    3
         2     6       5    4    0    3
         3     6       4    5    7    0
 23      1     1       7    9   10    0
         2     3       7    4    0    3
         3     6       3    1    0    2
 24      1     2       4    7    0    7
         2     7       2    6    8    0
         3    10       2    3    0    4
 25      1     1      10    6    8    0
         2     2       7    4    0    1
         3     5       7    3    7    0
 26      1     5       6    7    8    0
         2     8       4    3    0    4
         3    10       4    1    0    3
 27      1     7       8   10    0    3
         2     7       9   10    0    2
         3     9       8    8    6    0
 28      1     3       3    3    0    5
         2     4       3    3    2    0
         3     7       2    1    0    4
 29      1     1       4    8    5    0
         2     3       3    5    0   10
         3     8       2    2    0   10
 30      1     6       5    7    4    0
         2     7       3    5    4    0
         3     9       2    3    0    2
 31      1     9      10    8    0    7
         2     9      10    8    2    0
         3    10       6    8    0    7
 32      1     0       0    0    0    0
************************************************************************
RESOURCEAVAILABILITIES:
  R 1  R 2  N 1  N 2
   35   35   91   78
************************************************************************
